Name: Ing1112-1
Courses: 130
Rooms: 22
Days: 5
Periods_per_day: 5
Curricula: 54
Min_Max_Daily_Lectures: 2 3
UnavailabilityConstraints: 767
RoomConstraints: 260

COURSES:
c3212 t000 5 3 229 0
c10000 t001 2 2 140 0
c1606 t001 4 2 140 0
c1609 t002 3 2 140 0
c1613 t003 3 3 140 0
c1619 t004 2 2 140 0
c1622 t005 5 1 70 1
c1624 t006 5 1 70 1
c1641 t007 3 2 140 1
c1716 t008 3 2 60 1
c1717 t009 4 1 60 1
c1718 t010 3 2 60 1
c3170 t011 2 2 160 0
c3171 t012 5 3 160 0
c3173 t013 2 2 140 0
c3177 t014 2 2 20 0
c3181 t015 1 1 140 0
c3183 t016 2 2 165 0
c3189 t017 2 2 120 0
c3199 t018 2 2 140 0
c3200 t011 2 2 229 0
c3201 t019 4 4 229 0
c3205 t020 2 2 50 0
c3206 t021 2 2 50 0
c3209 t022 2 2 50 0
c3216 t023 2 2 80 0
c3219 t024 2 2 50 0
c3221 t025 4 3 50 0
c3224 t026 2 2 50 0
c3228 t027 2 2 130 0
c3234 t028 3 2 130 1
c3235 t029 2 2 10 0
c3236 t030 2 2 10 0
c3237 t021 2 2 130 0
c1599 t031 4 2 140 0
c3178 t032 3 2 160 1
c3190 t033 4 3 140 0
c3192 t034 4 4 140 0
c3195 t035 4 3 105 0
c3213 t036 2 2 50 0
c3232 t037 4 3 150 0
c3241 t038 2 2 150 0
c3244 t039 2 2 130 0
c3246 t023 3 3 130 0
c3250 t040 5 3 100 1
c3252 t041 2 2 100 0
c3253 t042 2 1 100 1
c3254 t043 2 2 100 0
c3257 t036 2 2 90 0
c3258 t044 2 2 90 0
c3259 t045 2 2 90 0
c3260 t046 2 2 90 0
c3261 t047 2 2 90 0
c3288 t048 4 3 80 0
c3289 t049 5 3 80 0
c3292 t050 4 4 70 0
c3293 t051 5 4 70 1
c3294 t052 2 2 80 0
c3314 t053 2 2 20 0
c3323 t025 2 2 110 0
c3327 t054 2 2 70 0
c3331 t031 2 2 70 0
c3337 t055 2 2 70 0
c3346 t056 2 2 30 0
c3349 t057 2 2 40 0
c3264 t058 5 3 150 0
c3266 t059 3 2 80 0
c3267 t060 4 3 160 0
c3350 t024 2 2 40 0
c3357 t061 2 2 40 0
c3358 t059 2 2 10 0
c3359 t057 2 2 10 0
c3361 t062 2 2 20 0
c3365 t063 2 2 110 0
c3366 t061 2 2 40 0
c3367 t064 4 3 40 0
c3379 t065 2 2 10 0
c3392 t066 2 2 10 0
c3396 t067 2 2 70 0
c3397 t017 2 2 120 0
c3399 t068 2 2 70 0
c3406 t069 2 2 40 0
c3408 t070 2 2 80 0
c3411 t071 2 2 100 0
c3412 t072 4 3 90 0
c3414 t069 2 2 40 0
c3415 t073 2 2 80 0
c3417 t074 2 2 30 0
c3425 t075 2 2 10 0
c3426 t076 2 2 10 0
c3430 t077 7 1 60 0
c3432 t078 4 3 120 0
c3433 t079 3 3 120 0
c3444 t080 5 2 140 1
c3449 t081 2 2 60 0
c3450 t082 6 2 60 1
c3451 t083 2 2 60 0
c3455 t084 2 2 60 0
c3469 t085 2 2 40 0
c3470 t014 2 2 40 0
c3473 t015 2 2 40 0
c3431 t086 4 3 120 0
c3371 t087 4 3 20 0
c3377 t088 4 3 20 0
c3389 t089 4 3 20 0
c3479 t005 2 2 100 0
c3489 t090 2 2 20 0
c3490 t091 2 2 10 0
c3491 t092 2 2 10 0
c3493 t038 2 2 70 0
c3495 t093 2 1 70 1
c3496 t094 2 2 70 0
c3509 t095 2 2 35 0
c3519 t096 3 3 40 0
c3554 t097 2 2 10 0
c3557 t056 2 2 50 0
c3564 t098 1 1 130 0
c3590 t016 2 2 60 0
c3591 t099 2 2 60 0
c3592 t099 2 2 60 0
c3593 t080 2 2 100 0
c3594 t097 2 2 10 0
c3596 t030 2 2 10 0
c3597 t066 2 2 10 0
c3604 t100 7 1 60 0
c3606 t101 2 2 20 0
c3607 t047 2 2 30 0
c3624 t102 7 2 70 1
c3626 t103 4 2 70 1
c3627 t104 3 2 70 1

ROOMS:
r25 40 0
r36 42 0
r37 42 0
r38 48 0
r34 50 0
r27 65 0
B 216 0
gamma1 90 0
gamma2 90 0
delta1 90 0
D 216 0
F 216 0
G 216 0
A 312 0
L 336 0
N 30 0
Er1 70 0
r52 60 0
E 216 0
r50 75 0
r51 78 0
DS1 60 0

CURRICULA:
q000 2 c3417 c3190 
q001 4 c3190 c3189 c3519 c3397 
q002 7 c3479 c1716 c1717 c1718 c3449 c3451 c3591 
q003 5 c3450 c3455 c3590 c3592 c3593 
q004 5 c10000 c1599 c1606 c3444 c3624 
q005 6 c10000 c1599 c1606 c3444 c3626 c3627 
q006 6 c1613 c1619 c1622 c3183 c1609 c1641 
q007 6 c1613 c1619 c1624 c3183 c1609 c1641 
q008 4 c3430 c3431 c3432 c3433 
q009 4 c3431 c3432 c3433 c3604 
q010 3 c3170 c3171 c3178 
q011 5 c3173 c3181 c3192 c3199 c3509 
q012 5 c3173 c3181 c3192 c3199 c3216 
q013 5 c3173 c3181 c3192 c3199 c3177 
q014 5 c3173 c3181 c3192 c3199 c3232 
q015 5 c3173 c3181 c3192 c3199 c3183 
q016 5 c3173 c3181 c3192 c3199 c3519 
q017 3 c3189 c3190 c3195 
q018 3 c3509 c3195 c3183 
q019 6 c3397 c3408 c3411 c3415 c3406 c3414 
q020 9 c3397 c3408 c3411 c3415 c3469 c3470 c3473 c3479 c3593 
q021 3 c3396 c3412 c3399 
q022 4 c3417 c3426 c3554 c3594 
q023 4 c3425 c3596 c3490 c3597 
q024 3 c3200 c3201 c3212 
q025 4 c3209 c3213 c3216 c3221 
q026 4 c3205 c3206 c3219 c3557 
q027 6 c3350 c3365 c3367 c3346 c3358 c3323 
q028 5 c3350 c3365 c3367 c3346 c3606 
q029 5 c3350 c3365 c3367 c3607 c3323 
q030 5 c3350 c3365 c3367 c3224 c3346 
q031 5 c3349 c3357 c3366 c3359 c3323 
q032 4 c3349 c3357 c3366 c3606 
q033 5 c3349 c3357 c3366 c3361 c3323 
q034 4 c3349 c3357 c3366 c3361 
q036 4 c3228 c3232 c3234 c3246 
q037 5 c3237 c3241 c3244 c3564 c3224 
q038 6 c3237 c3241 c3244 c3564 c3235 c3236 
q039 5 c3237 c3241 c3564 c3244 c3267 
q040 4 c3327 c3331 c3493 c3495 
q041 5 c3337 c3496 c3323 c3264 c3365 
q042 4 c3250 c3252 c3253 c3254 
q043 5 c3257 c3258 c3259 c3260 c3261 
q044 3 c3264 c3266 c3267 
q045 4 c3288 c3289 c3294 c3607 
q046 4 c3288 c3289 c3294 c3241 
q047 4 c3288 c3289 c3294 c3314 
q048 3 c3288 c3289 c3294 
q049 2 c3292 c3293 
q050 3 c3292 c3293 c3489 
q051 4 c3397 c3371 c3377 c3411 
q052 5 c3397 c3371 c3377 c3379 c3411 
q053 3 c3412 c3389 c3392 
q054 3 c3412 c3389 c3491 

UNAVAILABILITY_CONSTRAINTS:
c1609 0 0
c1609 0 1
c1609 0 2
c1609 0 3
c1609 0 4
c1609 1 0
c1609 1 1
c1609 1 2
c1609 1 3
c1609 1 4
c1609 2 0
c1609 2 1
c1609 2 4
c1609 3 2
c1609 3 3
c1609 3 4
c1609 4 0
c1609 4 1
c1609 4 2
c1609 4 3
c1609 4 4
c1613 0 0
c1613 1 0
c1613 3 0
c1613 4 0
c1613 4 1
c1613 4 2
c1613 4 3
c1613 4 4
c1622 0 2
c1622 0 3
c1622 0 4
c1622 1 2
c1622 2 2
c1622 2 4
c1641 0 0
c1641 0 2
c1641 1 2
c1641 2 2
c1641 3 2
c1641 4 2
c1641 4 3
c1641 4 4
c1716 0 0
c1716 0 1
c1716 0 2
c1716 0 3
c1716 0 4
c1716 1 0
c1716 1 1
c1716 1 2
c1717 0 0
c1717 0 1
c1717 1 0
c1717 1 1
c1717 3 0
c1717 3 1
c1717 4 0
c1717 4 1
c1718 0 0
c1718 0 1
c1718 0 2
c1718 0 3
c1718 0 4
c1718 4 2
c1718 4 3
c1718 4 4
c3170 0 0
c3170 0 1
c3170 0 2
c3170 4 0
c3170 4 1
c3170 4 2
c3170 4 3
c3170 4 4
c3171 0 3
c3171 1 3
c3171 4 2
c3171 4 3
c3171 4 4
c3177 0 2
c3177 1 2
c3177 2 2
c3177 2 3
c3177 3 2
c3177 3 3
c3177 3 4
c3177 4 2
c3181 0 0
c3181 0 1
c3181 0 2
c3181 0 3
c3181 0 4
c3181 4 2
c3181 4 3
c3181 4 4
c3183 0 0
c3183 0 1
c3189 0 0
c3189 0 1
c3189 0 2
c3189 0 3
c3189 0 4
c3189 4 3
c3189 4 4
c3199 0 4
c3199 1 4
c3199 2 4
c3199 3 4
c3199 4 0
c3199 4 2
c3199 4 3
c3199 4 4
c3200 0 0
c3200 0 1
c3200 0 2
c3200 4 0
c3200 4 1
c3200 4 2
c3200 4 3
c3200 4 4
c3201 0 2
c3201 0 3
c3201 1 2
c3201 1 3
c3201 2 2
c3201 3 2
c3201 3 3
c3201 4 2
c3205 0 0
c3205 0 4
c3205 1 0
c3205 1 4
c3205 2 0
c3205 2 4
c3205 3 0
c3205 3 4
c3205 4 0
c3205 4 4
c3209 0 0
c3209 0 1
c3209 0 4
c3209 1 4
c3209 2 4
c3209 3 4
c3209 4 3
c3209 4 4
c3216 3 0
c3216 3 1
c3216 3 2
c3216 3 3
c3216 3 4
c3216 4 2
c3216 4 3
c3216 4 4
c3221 0 0
c3221 1 0
c3221 2 0
c3221 2 2
c3221 2 3
c3221 2 4
c3221 3 0
c3221 4 0
c3224 0 4
c3224 1 4
c3224 2 1
c3224 2 2
c3224 2 3
c3224 2 4
c3224 3 4
c3224 4 4
c3228 0 0
c3228 0 1
c3228 0 2
c3228 4 0
c3228 4 1
c3228 4 2
c3228 4 3
c3228 4 4
c3234 0 4
c3234 1 4
c3234 2 3
c3234 2 4
c3234 3 4
c3234 4 3
c3234 4 4
c3235 0 0
c3235 1 0
c3235 1 2
c3235 2 0
c3235 2 2
c3235 3 0
c3235 3 2
c3235 4 0
c3236 0 0
c3236 0 1
c3236 1 0
c3236 2 0
c3236 2 1
c3236 3 0
c3236 4 0
c3236 4 3
c3236 4 4
c1599 0 0
c1599 0 1
c1599 0 2
c1599 4 0
c1599 4 1
c1599 4 2
c1599 4 3
c1599 4 4
c3190 0 0
c3190 0 2
c3190 1 2
c3190 2 0
c3190 2 2
c3190 2 3
c3190 2 4
c3190 3 2
c3190 4 0
c3190 4 2
c3192 0 2
c3192 0 3
c3192 0 4
c3192 1 2
c3192 1 3
c3192 1 4
c3192 2 2
c3192 2 3
c3192 2 4
c3192 3 2
c3192 3 3
c3192 3 4
c3192 4 2
c3192 4 3
c3192 4 4
c3213 0 0
c3213 0 1
c3213 0 2
c3213 0 3
c3213 4 1
c3213 4 2
c3213 4 3
c3213 4 4
c3232 0 0
c3232 0 1
c3232 0 2
c3232 4 0
c3232 4 1
c3232 4 2
c3232 4 3
c3232 4 4
c3241 0 0
c3241 0 1
c3241 0 2
c3241 0 3
c3241 0 4
c3241 4 0
c3241 4 1
c3241 4 2
c3241 4 3
c3241 4 4
c3244 2 2
c3244 2 3
c3244 2 4
c3246 3 0
c3246 3 1
c3246 3 2
c3246 3 3
c3246 3 4
c3246 4 0
c3246 4 1
c3246 4 2
c3246 4 3
c3246 4 4
c3250 0 3
c3250 0 4
c3250 1 3
c3250 1 4
c3250 2 3
c3250 2 4
c3250 3 3
c3250 3 4
c3250 4 3
c3250 4 4
c3254 0 0
c3254 0 1
c3254 0 2
c3254 0 3
c3254 0 4
c3254 1 0
c3254 1 1
c3254 2 0
c3254 2 1
c3254 2 2
c3254 2 3
c3254 2 4
c3254 3 0
c3254 3 1
c3254 3 2
c3254 3 3
c3254 3 4
c3254 4 0
c3257 0 0
c3257 0 1
c3257 0 2
c3257 0 3
c3257 4 1
c3257 4 2
c3257 4 3
c3257 4 4
c3258 3 0
c3258 3 1
c3258 3 2
c3258 3 3
c3258 3 4
c3258 4 0
c3258 4 1
c3258 4 2
c3258 4 3
c3258 4 4
c3260 0 0
c3260 0 1
c3260 0 2
c3260 0 3
c3260 0 4
c3260 3 0
c3260 3 1
c3260 3 2
c3260 3 3
c3260 3 4
c3261 0 0
c3261 0 1
c3261 0 2
c3261 0 3
c3261 0 4
c3261 3 0
c3261 3 1
c3261 3 2
c3261 3 3
c3261 3 4
c3261 4 3
c3261 4 4
c3288 0 0
c3288 0 1
c3288 1 0
c3288 1 1
c3288 2 0
c3288 2 1
c3288 3 0
c3288 4 0
c3289 1 0
c3289 1 1
c3289 1 2
c3289 1 3
c3289 1 4
c3289 3 0
c3289 3 1
c3289 3 2
c3289 3 3
c3289 3 4
c3292 0 2
c3292 1 2
c3292 2 2
c3292 3 2
c3292 4 2
c3292 4 3
c3293 0 0
c3293 0 1
c3293 0 2
c3293 0 3
c3293 0 4
c3294 0 0
c3294 1 0
c3294 2 0
c3294 3 0
c3294 4 0
c3314 0 2
c3314 2 3
c3314 2 4
c3314 4 0
c3314 4 1
c3314 4 2
c3314 4 3
c3314 4 4
c3323 0 0
c3323 1 0
c3323 2 0
c3323 2 2
c3323 2 3
c3323 2 4
c3323 3 0
c3323 4 0
c3327 0 0
c3327 1 0
c3327 2 0
c3327 2 4
c3327 3 0
c3327 3 4
c3327 4 0
c3327 4 4
c3331 0 0
c3331 0 1
c3331 0 2
c3331 4 0
c3331 4 1
c3331 4 2
c3331 4 3
c3331 4 4
c3337 0 0
c3337 2 3
c3337 2 4
c3337 4 0
c3337 4 1
c3337 4 2
c3337 4 3
c3337 4 4
c3346 0 0
c3346 0 1
c3346 0 2
c3346 0 3
c3346 0 4
c3346 1 4
c3346 2 4
c3346 4 4
c3264 0 4
c3264 1 0
c3264 1 1
c3264 1 2
c3264 1 3
c3264 1 4
c3264 2 3
c3264 2 4
c3264 3 3
c3264 3 4
c3266 1 0
c3266 2 4
c3266 3 0
c3266 3 1
c3266 3 2
c3266 3 3
c3266 3 4
c3267 0 0
c3267 0 1
c3267 1 0
c3267 1 1
c3267 4 1
c3267 4 2
c3267 4 3
c3267 4 4
c3357 0 0
c3357 0 1
c3357 0 2
c3357 0 3
c3357 4 1
c3357 4 2
c3357 4 3
c3357 4 4
c3358 3 0
c3358 3 1
c3358 3 2
c3358 3 3
c3358 3 4
c3361 0 0
c3361 0 1
c3361 1 1
c3361 1 4
c3361 2 1
c3361 3 0
c3361 3 1
c3361 3 4
c3365 0 0
c3365 0 1
c3365 0 2
c3365 0 3
c3365 0 4
c3365 4 2
c3365 4 3
c3365 4 4
c3366 0 0
c3366 0 1
c3366 0 2
c3366 0 3
c3366 4 1
c3366 4 2
c3366 4 3
c3366 4 4
c3367 1 2
c3367 1 3
c3367 1 4
c3367 3 2
c3367 3 3
c3367 3 4
c3367 4 4
c3379 0 0
c3379 0 1
c3379 0 2
c3379 1 2
c3379 2 2
c3379 3 2
c3379 4 2
c3392 3 2
c3392 3 3
c3392 3 4
c3392 4 0
c3392 4 1
c3392 4 2
c3392 4 3
c3392 4 4
c3397 0 0
c3397 0 1
c3397 0 2
c3397 0 3
c3397 0 4
c3397 4 3
c3397 4 4
c3406 0 2
c3406 1 0
c3406 1 2
c3406 2 2
c3406 2 3
c3406 3 2
c3406 4 0
c3406 4 2
c3408 0 2
c3408 1 2
c3408 2 2
c3408 3 2
c3408 4 2
c3408 4 4
c3411 0 0
c3411 1 0
c3411 1 4
c3411 2 0
c3411 2 4
c3411 3 0
c3411 3 4
c3411 4 0
c3412 0 0
c3412 1 0
c3412 1 1
c3412 1 2
c3412 1 3
c3412 1 4
c3412 4 3
c3412 4 4
c3414 0 2
c3414 1 0
c3414 1 2
c3414 2 2
c3414 2 3
c3414 3 2
c3414 4 0
c3414 4 2
c3417 0 2
c3417 1 2
c3417 2 2
c3417 3 2
c3417 4 2
c3425 0 0
c3425 0 1
c3425 0 2
c3425 0 3
c3425 4 1
c3425 4 2
c3425 4 3
c3425 4 4
c3426 0 0
c3426 0 1
c3426 0 2
c3426 0 3
c3426 0 4
c3426 4 2
c3426 4 3
c3426 4 4
c3430 0 0
c3430 0 2
c3430 0 4
c3430 4 0
c3430 4 2
c3430 4 4
c3432 0 3
c3432 0 4
c3432 1 3
c3432 1 4
c3432 3 3
c3432 3 4
c3432 4 3
c3432 4 4
c3433 0 0
c3433 0 4
c3433 1 4
c3433 2 0
c3433 2 4
c3433 3 4
c3433 4 0
c3433 4 4
c3449 0 0
c3449 0 1
c3449 0 2
c3449 0 3
c3449 4 1
c3449 4 2
c3449 4 3
c3449 4 4
c3469 0 2
c3469 1 2
c3469 2 2
c3469 3 2
c3469 4 2
c3469 4 3
c3469 4 4
c3470 0 2
c3470 1 2
c3470 2 2
c3470 2 3
c3470 3 2
c3470 3 3
c3470 3 4
c3473 0 0
c3473 0 1
c3473 0 2
c3473 0 3
c3473 0 4
c3473 4 2
c3473 4 3
c3473 4 4
c3371 0 0
c3371 0 1
c3371 0 2
c3371 0 4
c3371 1 0
c3371 2 0
c3371 3 0
c3371 4 0
c3377 0 0
c3377 0 2
c3377 2 1
c3377 4 0
c3377 4 1
c3377 4 2
c3377 4 3
c3377 4 4
c3479 0 2
c3479 0 3
c3479 0 4
c3479 1 2
c3479 2 2
c3479 2 4
c3479 3 2
c3479 4 0
c3479 4 1
c3479 4 2
c3479 4 3
c3479 4 4
c3489 0 0
c3489 0 1
c3489 0 2
c3489 0 3
c3489 0 4
c3489 4 2
c3489 4 3
c3489 4 4
c3490 0 0
c3490 0 1
c3490 0 2
c3490 0 3
c3490 1 0
c3490 2 0
c3490 3 0
c3490 4 0
c3493 0 0
c3493 0 1
c3493 0 2
c3493 0 3
c3493 0 4
c3493 4 0
c3493 4 1
c3493 4 2
c3493 4 3
c3493 4 4
c3495 0 0
c3495 0 1
c3495 0 3
c3495 0 4
c3495 1 0
c3495 1 1
c3495 1 3
c3495 1 4
c3495 2 0
c3495 2 1
c3495 2 3
c3495 2 4
c3495 3 0
c3495 3 1
c3495 3 3
c3495 3 4
c3495 4 0
c3495 4 1
c3496 0 4
c3496 1 2
c3496 1 4
c3496 2 4
c3496 3 2
c3496 3 4
c3496 4 2
c3496 4 4
c3554 0 4
c3554 1 2
c3554 1 4
c3554 2 2
c3554 2 4
c3554 3 4
c3554 4 2
c3554 4 4
c3557 0 0
c3557 0 1
c3557 0 2
c3557 0 3
c3557 0 4
c3557 3 4
c3557 4 3
c3557 4 4
c3590 0 0
c3590 0 1
c3594 0 4
c3594 1 4
c3594 2 4
c3594 3 4
c3594 4 4
c3596 0 0
c3596 0 1
c3596 1 0
c3596 2 0
c3596 2 1
c3596 3 0
c3596 4 0
c3596 4 3
c3596 4 4
c3597 3 2
c3597 3 3
c3597 3 4
c3597 4 0
c3597 4 1
c3597 4 2
c3597 4 3
c3597 4 4
c3606 0 0
c3606 0 4
c3606 1 0
c3606 1 4
c3606 2 0
c3606 2 4
c3606 3 0
c3606 3 4
c3606 4 0
c3606 4 4
c3607 4 3
c3607 4 4
c3624 0 0
c3624 0 1
c3624 0 2
c3624 1 0
c3624 1 1
c3624 1 2
c3624 2 0
c3624 2 1

ROOM_CONSTRAINTS:
c3212 Er1
c3212 DS1
c10000 Er1
c10000 DS1
c1606 Er1
c1606 DS1
c1609 Er1
c1609 DS1
c1613 Er1
c1613 DS1
c1619 Er1
c1619 DS1
c1622 Er1
c1622 DS1
c1624 Er1
c1624 DS1
c1641 Er1
c1641 DS1
c1716 Er1
c1716 DS1
c1717 Er1
c1717 DS1
c1718 Er1
c1718 DS1
c3170 Er1
c3170 DS1
c3171 Er1
c3171 DS1
c3173 Er1
c3173 DS1
c3177 Er1
c3177 DS1
c3181 Er1
c3181 DS1
c3183 Er1
c3183 DS1
c3189 Er1
c3189 DS1
c3199 Er1
c3199 DS1
c3200 Er1
c3200 DS1
c3201 Er1
c3201 DS1
c3205 Er1
c3205 DS1
c3206 Er1
c3206 DS1
c3209 Er1
c3209 DS1
c3216 Er1
c3216 DS1
c3219 Er1
c3219 DS1
c3221 Er1
c3221 DS1
c3224 Er1
c3224 DS1
c3228 Er1
c3228 DS1
c3234 Er1
c3234 DS1
c3235 Er1
c3235 DS1
c3236 Er1
c3236 DS1
c3237 Er1
c3237 DS1
c1599 Er1
c1599 DS1
c3178 Er1
c3178 DS1
c3190 Er1
c3190 DS1
c3192 Er1
c3192 DS1
c3195 Er1
c3195 DS1
c3213 Er1
c3213 DS1
c3232 Er1
c3232 DS1
c3241 Er1
c3241 DS1
c3244 Er1
c3244 DS1
c3246 Er1
c3246 DS1
c3250 Er1
c3250 DS1
c3252 Er1
c3252 DS1
c3253 Er1
c3253 DS1
c3254 Er1
c3254 DS1
c3257 Er1
c3257 DS1
c3258 Er1
c3258 DS1
c3259 Er1
c3259 DS1
c3260 Er1
c3260 DS1
c3261 Er1
c3261 DS1
c3288 Er1
c3288 DS1
c3289 Er1
c3289 DS1
c3292 Er1
c3292 DS1
c3293 Er1
c3293 DS1
c3294 Er1
c3294 DS1
c3314 Er1
c3314 DS1
c3323 Er1
c3323 DS1
c3327 Er1
c3327 DS1
c3331 Er1
c3331 DS1
c3337 Er1
c3337 DS1
c3346 Er1
c3346 DS1
c3349 Er1
c3349 DS1
c3264 Er1
c3264 DS1
c3266 Er1
c3266 DS1
c3267 Er1
c3267 DS1
c3350 Er1
c3350 DS1
c3357 Er1
c3357 DS1
c3358 Er1
c3358 DS1
c3359 Er1
c3359 DS1
c3361 Er1
c3361 DS1
c3365 Er1
c3365 DS1
c3366 Er1
c3366 DS1
c3367 Er1
c3367 DS1
c3379 Er1
c3379 DS1
c3392 Er1
c3392 DS1
c3396 Er1
c3396 DS1
c3397 Er1
c3397 DS1
c3399 Er1
c3399 DS1
c3406 Er1
c3406 DS1
c3408 Er1
c3408 DS1
c3411 Er1
c3411 DS1
c3412 Er1
c3412 DS1
c3414 Er1
c3414 DS1
c3415 Er1
c3415 DS1
c3417 Er1
c3417 DS1
c3425 Er1
c3425 DS1
c3426 Er1
c3426 DS1
c3430 Er1
c3430 DS1
c3432 Er1
c3432 DS1
c3433 Er1
c3433 DS1
c3444 Er1
c3444 DS1
c3449 Er1
c3449 DS1
c3450 Er1
c3450 DS1
c3451 Er1
c3451 DS1
c3455 Er1
c3455 DS1
c3469 Er1
c3469 DS1
c3470 Er1
c3470 DS1
c3473 Er1
c3473 DS1
c3431 Er1
c3431 DS1
c3371 Er1
c3371 DS1
c3377 Er1
c3377 DS1
c3389 Er1
c3389 DS1
c3479 Er1
c3479 DS1
c3489 Er1
c3489 DS1
c3490 Er1
c3490 DS1
c3491 Er1
c3491 DS1
c3493 Er1
c3493 DS1
c3495 Er1
c3495 DS1
c3496 Er1
c3496 DS1
c3509 Er1
c3509 DS1
c3519 Er1
c3519 DS1
c3554 Er1
c3554 DS1
c3557 Er1
c3557 DS1
c3564 Er1
c3564 DS1
c3590 Er1
c3590 DS1
c3591 Er1
c3591 DS1
c3592 Er1
c3592 DS1
c3593 Er1
c3593 DS1
c3594 Er1
c3594 DS1
c3596 Er1
c3596 DS1
c3597 Er1
c3597 DS1
c3604 Er1
c3604 DS1
c3606 Er1
c3606 DS1
c3607 Er1
c3607 DS1
c3624 Er1
c3624 DS1
c3626 Er1
c3626 DS1
c3627 Er1
c3627 DS1

END.
